n_res = 4;
rc = [ 27, 24, 18, 23 ];
n_tasks = 30;
d = [ 9, 2, 7, 4, 7, 6, 3, 6, 7, 7, 3, 9, 6, 5, 7, 6, 6, 4, 6, 5, 6, 7, 2, 6, 1, 2, 9, 1, 9, 7 ];
rr = [| 0, 1, 0, 0, 4, 7, 4, 2, 0, 0, 3, 1, 10, 7, 10, 4, 0, 9, 0, 0, 0, 7, 7, 0, 10, 0, 0, 0, 0, 6
      | 0, 6, 5, 2, 8, 0, 0, 2, 4, 0, 3, 0, 0, 0, 0, 10, 7, 5, 0, 0, 0, 4, 0, 3, 0, 10, 6, 0, 0, 8
      | 4, 1, 0, 0, 0, 3, 9, 5, 1, 0, 0, 3, 0, 5, 0, 8, 1, 2, 2, 0, 6, 0, 8, 5, 0, 0, 0, 7, 10, 0
      | 0, 0, 5, 0, 7, 4, 6, 0, 9, 1, 0, 0, 3, 0, 0, 0, 5, 0, 0, 2, 0, 9, 0, 0, 0, 2, 0, 10, 9, 0 |];
suc = [ { 2 }, 
        { 3 }, 
        { 4 }, 
        { 5 }, 
        { 6 }, 
        { 7 }, 
        { 8 }, 
        { 9 }, 
        { 10 }, 
        { 11 }, 
        { 12 }, 
        { 13 }, 
        { 14 }, 
        { 15 }, 
        { 16 }, 
        { 17 }, 
        { 18 }, 
        { 19 }, 
        { 20 }, 
        { 21 }, 
        { 22 }, 
        { 23 }, 
        { 24 }, 
        { 25 }, 
        { 26 }, 
        { 27 }, 
        { 28 }, 
        { 29 }, 
        { 30 }, 
        {  }]; 
